95-92-98-42-15-57-87-97-43-13-58
59-14-44-38-86-84-93-37-100-91
12-76-33-81-78-79-3-50-68-80
27-69-31-30-51-9-66-20-70-1
2-72-73-21-40-53-26-54-55-25
52-88-7-18-8-46-17-60-89
39-67-23-75-22-41-74-56-4
83-5-61-16-85-99-94-6-96
28-29-71-65-35-34-24-77
45-82-19-47-36-49-48
62-11-64-63-90-32-10